20
2 1 6
3 1 16
4 0 211
4 3 278
6 0 48
6 2 36
6 5 185
7 0 194
7 4 97
7 6 159
9 0 106
9 1 223
9 2 37
9 3 12
9 4 269
9 5 117
9 7 249
10 4 315
11 0 91
11 2 193
11 7 305
11 8 20
11 9 160
11 10 139
12 0 206
12 9 200
13 2 37
13 3 112
13 4 245
13 5 41
13 11 279
14 0 129
14 4 306
14 6 46
14 8 82
15 1 204
15 6 10
15 9 8
15 11 117
15 14 207
16 8 281
16 11 277
16 13 113
17 2 121
17 10 196
18 2 270
18 4 10
18 13 244
19 6 122
19 8 243
19 9 142
19 10 234
19 14 151
19 16 58
19 18 293
